%%%mzn-stat: initTime=0.012785539
%%%mzn-stat: objective=381
%%%mzn-stat: nodes=166667
%%%mzn-stat: restarts=10
%%%mzn-stat: peakDepth=583
%%%mzn-stat: solveTime=44.56727705
%%%mzn-stat: variables=1144
%%%mzn-stat: propagators=2066
%%%mzn-stat: failures=142315
%%%mzn-stat: propagations=37707286
%%%mzn-stat: nogoods=142315
%%%mzn-stat: AverageConflictSize=25.702933633137757
%%%mzn-stat: NumUnitNogoodsLearned=294
%%%mzn-stat: AverageLearnedNogoodLength=48.87224818185012
%%%mzn-stat: AverageBacktrackAmount=0
%%%mzn-stat: AverageLbd=25.081888767874084
%%%mzn-stat-end
maxleg = 381;
succ = array1d(1..50,[18, 7, 17, 5, 50, 34, 39, 19, 14, 30, 42, 27, 22, 38, 8, 47, 10, 9, 31, 45, 4, 15, 25, 23, 3, 2, 41, 46, 32, 49, 44, 20, 6, 12, 1, 48, 24, 11, 40, 29, 28, 36, 35, 33, 13, 21, 43, 37, 26, 16]);
% time elapsed: 44.92 s
----------
%%%mzn-stat: initTime=0.012785539
%%%mzn-stat: objective=371
%%%mzn-stat: nodes=183330
%%%mzn-stat: restarts=12
%%%mzn-stat: peakDepth=583
%%%mzn-stat: solveTime=49.455894696
%%%mzn-stat: variables=1144
%%%mzn-stat: propagators=2066
%%%mzn-stat: failures=155428
%%%mzn-stat: propagations=41635564
%%%mzn-stat: nogoods=155428
%%%mzn-stat: AverageConflictSize=25.603134570347684
%%%mzn-stat: NumUnitNogoodsLearned=294
%%%mzn-stat: AverageLearnedNogoodLength=49.67821756697635
%%%mzn-stat: AverageBacktrackAmount=0
%%%mzn-stat: AverageLbd=24.868820289780476
%%%mzn-stat-end
maxleg = 371;
succ = array1d(1..50,[18, 7, 17, 5, 50, 34, 39, 19, 14, 30, 42, 27, 22, 38, 8, 47, 10, 9, 31, 45, 4, 15, 25, 23, 3, 2, 41, 46, 13, 49, 44, 20, 6, 12, 1, 48, 24, 11, 40, 29, 28, 32, 35, 33, 36, 21, 43, 37, 26, 16]);
% time elapsed: 49.80 s
----------
%%%mzn-stat: initTime=0.012785539
%%%mzn-stat: objective=324
%%%mzn-stat: nodes=216221
%%%mzn-stat: restarts=13
%%%mzn-stat: peakDepth=583
%%%mzn-stat: solveTime=56.144170567
%%%mzn-stat: variables=1144
%%%mzn-stat: propagators=2066
%%%mzn-stat: failures=182725
%%%mzn-stat: propagations=48895303
%%%mzn-stat: nogoods=182725
%%%mzn-stat: AverageConflictSize=23.70261868928718
%%%mzn-stat: NumUnitNogoodsLearned=294
%%%mzn-stat: AverageLearnedNogoodLength=46.87657955944726
%%%mzn-stat: AverageBacktrackAmount=0
%%%mzn-stat: AverageLbd=23.705809276234778
%%%mzn-stat-end
maxleg = 324;
succ = array1d(1..50,[4, 7, 17, 35, 43, 28, 39, 19, 14, 30, 42, 1, 22, 38, 8, 47, 10, 9, 31, 45, 27, 15, 25, 23, 3, 2, 41, 46, 13, 26, 44, 20, 6, 12, 5, 48, 24, 11, 40, 29, 34, 32, 50, 33, 36, 21, 49, 37, 18, 16]);
% time elapsed: 56.49 s
----------
%%%mzn-stat: initTime=0.012785539
%%%mzn-stat: objective=323
%%%mzn-stat: nodes=219794
%%%mzn-stat: restarts=15
%%%mzn-stat: peakDepth=583
%%%mzn-stat: solveTime=56.615597252
%%%mzn-stat: variables=1144
%%%mzn-stat: propagators=2066
%%%mzn-stat: failures=184456
%%%mzn-stat: propagations=49290476
%%%mzn-stat: nogoods=184456
%%%mzn-stat: AverageConflictSize=23.60104848852843
%%%mzn-stat: NumUnitNogoodsLearned=294
%%%mzn-stat: AverageLearnedNogoodLength=46.86857570369085
%%%mzn-stat: AverageBacktrackAmount=0
%%%mzn-stat: AverageLbd=23.688727935117317
%%%mzn-stat-end
maxleg = 323;
succ = array1d(1..50,[4, 7, 17, 35, 43, 28, 39, 19, 14, 30, 24, 1, 22, 38, 8, 47, 10, 9, 31, 45, 27, 15, 42, 23, 3, 2, 41, 46, 32, 26, 44, 20, 6, 12, 5, 48, 13, 11, 40, 29, 34, 25, 50, 33, 36, 21, 49, 37, 18, 16]);
% time elapsed: 56.96 s
----------
%%%mzn-stat: initTime=0.012785539
%%%mzn-stat: objective=322
%%%mzn-stat: nodes=221118
%%%mzn-stat: restarts=16
%%%mzn-stat: peakDepth=583
%%%mzn-stat: solveTime=56.753815012
%%%mzn-stat: variables=1144
%%%mzn-stat: propagators=2066
%%%mzn-stat: failures=184914
%%%mzn-stat: propagations=49407878
%%%mzn-stat: nogoods=184914
%%%mzn-stat: AverageConflictSize=23.56745297814119
%%%mzn-stat: NumUnitNogoodsLearned=294
%%%mzn-stat: AverageLearnedNogoodLength=46.85348324085791
%%%mzn-stat: AverageBacktrackAmount=0
%%%mzn-stat: AverageLbd=23.68770347296581
%%%mzn-stat-end
maxleg = 322;
succ = array1d(1..50,[4, 7, 17, 35, 43, 28, 39, 19, 14, 30, 24, 1, 22, 38, 8, 47, 10, 9, 31, 45, 27, 15, 42, 23, 3, 2, 41, 46, 32, 26, 44, 20, 6, 12, 5, 48, 13, 11, 40, 29, 34, 25, 50, 33, 36, 21, 49, 37, 18, 16]);
% time elapsed: 57.11 s
----------
%%%mzn-stat: initTime=0.012785539
%%%mzn-stat: objective=321
%%%mzn-stat: nodes=256668
%%%mzn-stat: restarts=17
%%%mzn-stat: peakDepth=583
%%%mzn-stat: solveTime=63.932291511
%%%mzn-stat: variables=1144
%%%mzn-stat: propagators=2066
%%%mzn-stat: failures=212998
%%%mzn-stat: propagations=54748978
%%%mzn-stat: nogoods=212998
%%%mzn-stat: AverageConflictSize=22.15569629761782
%%%mzn-stat: NumUnitNogoodsLearned=294
%%%mzn-stat: AverageLearnedNogoodLength=45.524582390444984
%%%mzn-stat: AverageBacktrackAmount=0
%%%mzn-stat: AverageLbd=22.911623583320033
%%%mzn-stat-end
maxleg = 321;
succ = array1d(1..50,[4, 7, 17, 35, 43, 28, 39, 19, 14, 30, 24, 1, 22, 38, 8, 47, 10, 9, 31, 45, 27, 15, 42, 23, 3, 2, 41, 46, 32, 26, 44, 20, 6, 12, 5, 48, 13, 11, 40, 29, 34, 25, 50, 33, 36, 21, 49, 37, 18, 16]);
% time elapsed: 64.29 s
----------
%%%mzn-stat: initTime=0.012785539
%%%mzn-stat: objective=320
%%%mzn-stat: nodes=341507
%%%mzn-stat: restarts=18
%%%mzn-stat: peakDepth=583
%%%mzn-stat: solveTime=81.724258136
%%%mzn-stat: variables=1144
%%%mzn-stat: propagators=2066
%%%mzn-stat: failures=284881
%%%mzn-stat: propagations=67315024
%%%mzn-stat: nogoods=284881
%%%mzn-stat: AverageConflictSize=19.255717299504003
%%%mzn-stat: NumUnitNogoodsLearned=294
%%%mzn-stat: AverageLearnedNogoodLength=41.26078959284754
%%%mzn-stat: AverageBacktrackAmount=0
%%%mzn-stat: AverageLbd=20.607035920261442
%%%mzn-stat-end
maxleg = 320;
succ = array1d(1..50,[4, 7, 17, 35, 43, 28, 39, 19, 14, 30, 24, 1, 22, 38, 8, 47, 10, 9, 31, 45, 27, 15, 42, 23, 3, 2, 41, 46, 32, 26, 44, 20, 6, 12, 5, 48, 13, 11, 40, 29, 34, 25, 50, 33, 36, 21, 49, 37, 18, 16]);
% time elapsed: 82.08 s
----------
%%%mzn-stat: initTime=0.012785539
%%%mzn-stat: objective=319
%%%mzn-stat: nodes=343007
%%%mzn-stat: restarts=19
%%%mzn-stat: peakDepth=583
%%%mzn-stat: solveTime=81.914015907
%%%mzn-stat: variables=1144
%%%mzn-stat: propagators=2066
%%%mzn-stat: failures=285503
%%%mzn-stat: propagations=67453742
%%%mzn-stat: nogoods=285503
%%%mzn-stat: AverageConflictSize=19.234785623968925
%%%mzn-stat: NumUnitNogoodsLearned=294
%%%mzn-stat: AverageLearnedNogoodLength=41.25466282315772
%%%mzn-stat: AverageBacktrackAmount=0
%%%mzn-stat: AverageLbd=20.601135539731633
%%%mzn-stat-end
maxleg = 319;
succ = array1d(1..50,[4, 7, 17, 35, 43, 28, 39, 19, 14, 30, 24, 1, 22, 38, 8, 47, 10, 9, 31, 45, 27, 15, 42, 23, 3, 2, 41, 46, 32, 26, 44, 20, 6, 12, 5, 48, 13, 11, 40, 29, 34, 25, 50, 33, 36, 21, 49, 37, 18, 16]);
% time elapsed: 82.28 s
----------
%%%mzn-stat: initTime=0.012785539
%%%mzn-stat: objective=318
%%%mzn-stat: nodes=367404
%%%mzn-stat: restarts=20
%%%mzn-stat: peakDepth=583
%%%mzn-stat: solveTime=87.616542381
%%%mzn-stat: variables=1144
%%%mzn-stat: propagators=2066
%%%mzn-stat: failures=305815
%%%mzn-stat: propagations=71437044
%%%mzn-stat: nogoods=305815
%%%mzn-stat: AverageConflictSize=18.678939881954776
%%%mzn-stat: NumUnitNogoodsLearned=294
%%%mzn-stat: AverageLearnedNogoodLength=40.504844432091296
%%%mzn-stat: AverageBacktrackAmount=0
%%%mzn-stat: AverageLbd=20.337377172473555
%%%mzn-stat-end
maxleg = 318;
succ = array1d(1..50,[4, 7, 17, 35, 43, 28, 39, 19, 14, 30, 24, 1, 22, 38, 8, 47, 10, 9, 31, 45, 27, 15, 42, 23, 3, 2, 41, 46, 32, 26, 44, 20, 6, 12, 5, 48, 13, 11, 40, 29, 34, 25, 50, 33, 36, 21, 49, 37, 18, 16]);
% time elapsed: 87.98 s
----------
%%%mzn-stat: initTime=0.012785539
%%%mzn-stat: objective=313
%%%mzn-stat: nodes=371464
%%%mzn-stat: restarts=22
%%%mzn-stat: peakDepth=583
%%%mzn-stat: solveTime=88.255499359
%%%mzn-stat: variables=1144
%%%mzn-stat: propagators=2066
%%%mzn-stat: failures=308386
%%%mzn-stat: propagations=72042894
%%%mzn-stat: nogoods=308386
%%%mzn-stat: AverageConflictSize=18.600328808700784
%%%mzn-stat: NumUnitNogoodsLearned=294
%%%mzn-stat: AverageLearnedNogoodLength=40.428865123578895
%%%mzn-stat: AverageBacktrackAmount=0
%%%mzn-stat: AverageLbd=20.31748522954998
%%%mzn-stat-end
maxleg = 313;
succ = array1d(1..50,[4, 7, 17, 35, 43, 28, 39, 15, 14, 30, 24, 1, 22, 38, 19, 47, 10, 9, 31, 8, 27, 32, 42, 23, 3, 2, 41, 46, 45, 26, 44, 20, 6, 12, 5, 48, 13, 11, 40, 29, 34, 25, 50, 33, 36, 21, 49, 37, 18, 16]);
% time elapsed: 88.62 s
----------
%%%mzn-stat: initTime=0.012785539
%%%mzn-stat: objective=312
%%%mzn-stat: nodes=378927
%%%mzn-stat: restarts=23
%%%mzn-stat: peakDepth=583
%%%mzn-stat: solveTime=89.625444261
%%%mzn-stat: variables=1144
%%%mzn-stat: propagators=2066
%%%mzn-stat: failures=313862
%%%mzn-stat: propagations=73172035
%%%mzn-stat: nogoods=313862
%%%mzn-stat: AverageConflictSize=18.465452969776525
%%%mzn-stat: NumUnitNogoodsLearned=294
%%%mzn-stat: AverageLearnedNogoodLength=40.28025692820412
%%%mzn-stat: AverageBacktrackAmount=0
%%%mzn-stat: AverageLbd=20.25088414653574
%%%mzn-stat-end
maxleg = 312;
succ = array1d(1..50,[4, 3, 17, 35, 43, 28, 39, 15, 14, 30, 24, 1, 22, 38, 19, 47, 7, 10, 31, 8, 27, 32, 42, 23, 2, 9, 41, 46, 45, 26, 44, 20, 6, 12, 5, 48, 13, 11, 40, 29, 34, 25, 50, 33, 36, 21, 49, 37, 18, 16]);
% time elapsed: 90.00 s
----------
%%%mzn-stat: initTime=0.012785539
%%%mzn-stat: objective=311
%%%mzn-stat: nodes=381850
%%%mzn-stat: restarts=24
%%%mzn-stat: peakDepth=583
%%%mzn-stat: solveTime=90.14194615
%%%mzn-stat: variables=1144
%%%mzn-stat: propagators=2066
%%%mzn-stat: failures=315699
%%%mzn-stat: propagations=73445520
%%%mzn-stat: nogoods=315699
%%%mzn-stat: AverageConflictSize=18.426342813882844
%%%mzn-stat: NumUnitNogoodsLearned=294
%%%mzn-stat: AverageLearnedNogoodLength=40.209478015451424
%%%mzn-stat: AverageBacktrackAmount=0
%%%mzn-stat: AverageLbd=20.22932603524243
%%%mzn-stat-end
maxleg = 311;
succ = array1d(1..50,[4, 3, 17, 35, 43, 28, 39, 15, 14, 30, 24, 1, 22, 38, 19, 47, 7, 10, 31, 8, 27, 32, 42, 23, 2, 9, 41, 46, 45, 26, 44, 20, 6, 12, 5, 48, 13, 11, 40, 29, 34, 25, 50, 33, 36, 21, 49, 37, 18, 16]);
% time elapsed: 90.52 s
----------
%%%mzn-stat: initTime=0.012785539
%%%mzn-stat: objective=304
%%%mzn-stat: nodes=382929
%%%mzn-stat: restarts=25
%%%mzn-stat: peakDepth=583
%%%mzn-stat: solveTime=90.219554494
%%%mzn-stat: variables=1144
%%%mzn-stat: propagators=2066
%%%mzn-stat: failures=315964
%%%mzn-stat: propagations=73502249
%%%mzn-stat: nogoods=315964
%%%mzn-stat: AverageConflictSize=18.423437480219267
%%%mzn-stat: NumUnitNogoodsLearned=294
%%%mzn-stat: AverageLearnedNogoodLength=40.20737489081034
%%%mzn-stat: AverageBacktrackAmount=0
%%%mzn-stat: AverageLbd=20.228266511374713
%%%mzn-stat-end
maxleg = 304;
succ = array1d(1..50,[3, 7, 17, 47, 43, 28, 39, 15, 14, 30, 24, 1, 22, 38, 19, 4, 35, 10, 31, 8, 27, 32, 42, 23, 2, 9, 41, 46, 45, 26, 44, 20, 6, 12, 5, 48, 13, 11, 40, 29, 34, 25, 50, 33, 36, 21, 49, 37, 18, 16]);
% time elapsed: 90.60 s
----------
%%%mzn-stat: initTime=0.012785539
%%%mzn-stat: objective=304
%%%mzn-stat: nodes=7921018
%%%mzn-stat: restarts=8856
%%%mzn-stat: peakDepth=583
%%%mzn-stat: solveTime=1799.769986487
%%%mzn-stat: variables=1144
%%%mzn-stat: propagators=2066
%%%mzn-stat: failures=6018534
%%%mzn-stat: propagations=836866943
%%%mzn-stat: nogoods=6018534
%%%mzn-stat: AverageConflictSize=12.572208448103808
%%%mzn-stat: NumUnitNogoodsLearned=294
%%%mzn-stat: AverageLearnedNogoodLength=32.52370660363471
%%%mzn-stat: AverageBacktrackAmount=0
%%%mzn-stat: AverageLbd=13.125514784829662
%%%mzn-stat-end
